1509
43 20 22 46 17 24 62 47 52 57 5 60 65 23 85 29 68 73 87 44 40 15 96 35 33 84 30 54 11 7 8 90 45 36 27 55 3 50 98 34 75 82 97 80 26 49 61 83 89 77 67 86 99 41 18 94 78 9 81 91 38 56 14 69 72 12 25 21 63 51 79 1 59 6 95 39 37 64 66 58 70 13 76 4 92 74 10 42 2 19 48 32 16 28 88 53 71 31 93 
